p cnf 41 243
1 -29 0 
29 -1 14 15 16 18 22 23 25 26 27 28 0 
1 -28 2 3 4 5 6 7 8 0 
1 -27 2 3 4 5 6 7 8 0 
1 -26 2 3 4 5 6 7 8 0 
1 -25 3 0 
1 -18 2 3 4 5 6 7 8 0 
1 -16 2 3 4 5 6 7 8 0 
1 -15 2 3 4 5 6 7 8 0 
1 -14 2 3 4 5 6 7 8 0 
24 -8 14 15 16 17 18 19 20 21 22 23 27 26 28 0 
8 -21 2 5 6 7 4 0 
24 -7 14 15 16 17 18 19 20 21 22 23 27 26 28 0 
24 -6 14 15 16 17 18 19 20 21 22 23 27 26 28 0 
10 -13 9 0 
10 -12 9 0 
10 -11 9 0 
24 -4 14 15 16 17 18 19 20 21 22 23 27 26 28 0 
28 -3 14 15 16 17 18 19 20 22 23 24 25 26 27 0 
3 -24 5 6 7 4 8 2 0 
3 -20 5 6 7 4 8 2 0 
3 -19 5 6 7 4 8 2 0 
3 -17 5 6 7 4 8 2 0 
24 -2 14 15 16 17 18 19 20 21 22 23 27 26 28 0 
2 -23 3 4 5 6 7 8 0 
2 -22 3 4 5 6 7 8 0 
-2 -3 0 
-2 -4 0 
-2 -5 0 
-2 -6 0 
-2 -7 0 
-3 -4 0 
-2 -8 0 
-2 -9 0 
-3 -5 0 
-2 -10 0 
-2 -11 0 
-3 -6 0 
-2 -12 0 
-2 -13 0 
-3 -7 0 
-4 -5 0 
-3 -8 0 
-4 -6 0 
-3 -9 0 
-3 -10 0 
-4 -7 0 
-3 -11 0 
-5 -6 0 
-4 -8 0 
-3 -12 0 
-2 -25 0 
-3 -13 0 
-4 -9 0 
-5 -7 0 
-2 -28 0 
-4 -10 0 
-2 -29 0 
-5 -8 0 
-4 -11 0 
-6 -7 0 
-17 -3 0 
-5 -9 0 
-4 -12 0 
-6 -8 0 
-4 -13 0 
-5 -10 0 
-21 -3 0 
-5 -11 0 
-6 -9 0 
-2 -1 0 
1 2 3 4 5 6 7 8 9 10 0 
-7 -8 0 
-5 -12 0 
-6 -10 0 
-5 -13 0 
-7 -9 0 
-6 -11 0 
-7 -10 0 
-6 -12 0 
-3 -29 0 
-8 -9 0 
-6 -13 0 
-7 -11 0 
-8 -10 0 
-7 -12 0 
-8 -11 0 
-4 -25 0 
-7 -13 0 
-9 -10 0 
-8 -12 0 
-4 -28 0 
-3 -1 0 
1 3 -28 0 
-4 -29 0 
-8 -13 0 
-5 -25 0 
-9 -14 0 
-5 -28 0 
-11 -12 0 
-5 -29 0 
-15 -9 0 
-10 -14 0 
-6 -25 0 
-9 -16 0 
-11 -13 0 
-4 -1 0 
-15 -10 0 
-9 -17 0 
-11 -14 0 
-12 -13 0 
-6 -28 0 
-10 -16 0 
-18 -9 0 
-6 -29 0 
-11 -15 0 
-12 -14 0 
-7 -25 0 
-9 -19 0 
-10 -17 0 
-11 -16 0 
-9 -20 0 
-18 -10 0 
-12 -15 0 
-13 -14 0 
-9 -21 0 
-11 -17 0 
-7 -28 0 
-10 -19 0 
-5 -1 0 
-12 -16 0 
-7 -29 0 
-8 -25 0 
-9 -22 0 
-13 -15 0 
-11 -18 0 
-10 -20 0 
-23 -9 0 
-12 -17 0 
-10 -21 0 
-11 -19 0 
-13 -16 0 
-9 -24 0 
-12 -18 0 
-8 -28 0 
-10 -22 0 
-11 -20 0 
-9 -25 0 
-13 -17 0 
-14 -16 0 
-8 -29 0 
-23 -10 0 
-12 -19 0 
-9 -26 0 
-11 -21 0 
-13 -18 0 
-6 -1 0 
-10 -24 0 
-9 -27 0 
-12 -20 0 
-11 -22 0 
-15 -16 0 
-9 -28 0 
-10 -25 0 
-13 -19 0 
-11 -23 0 
-12 -21 0 
-9 -29 0 
-10 -26 0 
-13 -20 0 
-11 -24 0 
-12 -22 0 
-10 -27 0 
-11 -25 0 
-13 -21 0 
-12 -23 0 
-10 -28 0 
-7 -1 0 
-11 -26 0 
-10 -29 0 
-13 -22 0 
-12 -24 0 
-16 -18 0 
-11 -27 0 
-12 -25 0 
-13 -23 0 
-11 -28 0 
-12 -26 0 
-13 -24 0 
-12 -27 0 
-8 -1 0 
-13 -25 0 
-12 -28 0 
-13 -26 0 
-13 -27 0 
-13 -28 0 
-9 -1 0 
-19 -20 0 
-10 -1 0 
-17 -25 0 
-11 -1 0 
-28 -17 0 
-25 -19 0 
-17 -29 0 
-12 -1 0 
-25 -20 0 
-13 -1 0 
-25 -24 0 
-25 -26 0 
-25 -27 0 
-25 -28 0 
-17 -1 0 
-1 -19 0 
-1 -20 0 
-21 -1 0 
30 31 32 33 34 35 36 37 38 39 40 41 9 10 0 
-31 -32 0 
-1 -24 0 
-30 -34 0 
-31 -34 0 
-33 -32 0 
-31 -35 0 
-34 -32 0 
-31 -37 0 
-34 -35 0 
-39 -31 0 
-30 -41 0 
-40 -31 0 
-31 -41 0 
-40 -32 0 
-41 -32 0 
-39 -34 0 
-36 -37 0 
-33 -41 0 
-34 -40 0 
-34 -41 0 
-35 -41 0 
-36 -41 0 
-37 -41 0 
-38 -41 0 
-39 -40 0 
-39 -41 0 
-40 -41 0 
c p weight 1 0.521151 0
c p weight -1 0.478849 0
c p weight 2 0.505602 0
c p weight -2 0.494398 0
c p weight 3 0.450446 0
c p weight -3 0.549554 0
c p weight 4 0.437559 0
c p weight -4 0.562441 0
c p weight 5 0.394358 0
c p weight -5 0.605642 0
c p weight 6 0.484414 0
c p weight -6 0.515586 0
c p weight 7 0.461475 0
c p weight -7 0.538525 0
c p weight 8 0.509901 0
c p weight -8 0.490099 0
c p weight 9 0.511398 0
c p weight -9 0.488602 0
c p weight 10 0.529143 0
c p weight -10 0.470857 0
c p weight 11 0.611354 0
c p weight -11 0.388646 0
c p weight 12 0.502254 0
c p weight -12 0.497746 0
c p weight 13 0.487496 0
c p weight -13 0.512504 0
c p weight 14 0.339355 0
c p weight -14 0.660645 0
c p weight 15 0.471101 0
c p weight -15 0.528899 0
c p weight 16 0.478786 0
c p weight -16 0.521214 0
c p weight 17 0.496445 0
c p weight -17 0.503555 0
c p weight 18 0.530069 0
c p weight -18 0.469931 0
c p weight 19 0.4353 0
c p weight -19 0.564700 0
c p weight 20 0.505996 0
c p weight -20 0.494004 0
c p weight 21 0.526932 0
c p weight -21 0.473068 0
c p weight 22 0.51292 0
c p weight -22 0.487080 0
c p weight 23 0.434775 0
c p weight -23 0.565225 0
c p weight 24 0.410197 0
c p weight -24 0.589803 0
c p weight 25 0.476022 0
c p weight -25 0.523978 0
c p weight 26 0.474958 0
c p weight -26 0.525042 0
c p weight 27 0.488161 0
c p weight -27 0.511839 0
c p weight 28 0.465154 0
c p weight -28 0.534846 0
c p weight 29 0.552956 0
c p weight -29 0.447044 0
c p weight 30 0.417593 0
c p weight -30 0.582407 0
c p weight 31 0.466244 0
c p weight -31 0.533756 0
c p weight 32 0.627843 0
c p weight -32 0.372157 0
c p weight 33 0.503519 0
c p weight -33 0.496481 0
c p weight 34 0.437578 0
c p weight -34 0.562422 0
c p weight 35 0.480343 0
c p weight -35 0.519657 0
c p weight 36 0.401642 0
c p weight -36 0.598358 0
c p weight 37 0.545808 0
c p weight -37 0.454192 0
c p weight 38 0.479588 0
c p weight -38 0.520412 0
c p weight 39 0.531969 0
c p weight -39 0.468031 0
c p weight 40 0.494684 0
c p weight -40 0.505316 0
c p weight 41 0.440027 0
c p weight -41 0.559973 0
